# 37770
param k := 6;
param n := 60;
param s := 1;
set E :=  (0,14) (0,17) (0,57) (1,22) (1,30) (1,47) (2,16) (3,43) (4,11) (4,36) (4,59) (5,43) (5,45) (6,37) (7,24) (8,54) (9,35) (10,24) (12,35) (13,28) (13,46) (13,50) (14,15) (15,24) (16,57) (17,27) (17,31) (18,40) (19,51) (20,23) (21,35) (21,40) (21,48) (23,57) (25,45) (25,53) (26,38) (27,48) (29,50) (30,41) (30,46) (32,35) (33,37) (34,44) (34,54) (34,55) (35,52) (36,38) (36,49) (37,46) (37,54) (38,56) (39,58) (42,56) (43,50) (43,58) (46,48) (49,55) (51,54);